275 5
10 10 10 10 10 

0 0 0 0 0 0 4 2 14 26 38 
0 0 0 0 0 0 5 3 4 5 7 8 
7 2 0 0 0 0 2 12 6 
7 4 0 0 0 0 4 12 11 10 9 
2 5 0 0 0 0 4 12 11 10 9 
3 5 0 0 0 0 4 11 10 9 253 
7 6 0 0 0 0 2 11 9 
9 3 0 0 0 0 2 10 9 
1 4 0 0 0 0 1 13 
3 5 0 0 0 0 1 13 
3 10 0 0 0 0 1 13 
3 6 0 0 0 0 1 13 
0 0 0 0 0 0 1 50 
0 0 0 0 0 0 4 15 16 18 19 
3 0 1 0 0 0 3 24 22 17 
7 0 9 0 0 0 4 24 22 21 20 
7 0 3 0 0 0 3 23 21 20 
7 0 3 0 0 0 3 22 21 20 
1 0 6 0 0 0 3 23 20 253 
2 0 5 0 0 0 1 25 
6 0 6 0 0 0 1 25 
2 0 7 0 0 0 1 25 
7 0 6 0 0 0 1 25 
1 0 4 0 0 0 1 25 
0 0 0 0 0 0 1 50 
0 0 0 0 0 0 6 27 28 30 35 36 143 
7 1 0 0 0 0 3 32 31 29 
2 8 0 0 0 0 3 34 32 31 
7 4 0 0 0 0 1 33 
7 6 0 0 0 0 1 31 
7 8 0 0 0 0 1 37 
6 4 0 0 0 0 1 37 
5 4 0 0 0 0 1 37 
2 3 0 0 0 0 1 37 
10 5 0 0 0 0 1 37 
5 7 0 0 0 0 1 37 
0 0 0 0 0 0 1 50 
0 0 0 0 0 0 4 39 40 41 48 
5 0 0 0 1 0 3 47 46 42 
6 0 0 0 5 0 3 46 45 43 
8 0 0 0 6 0 4 46 45 43 127 
8 0 0 0 6 0 2 45 44 
4 0 0 0 7 0 1 44 
1 0 0 0 6 0 1 49 
6 0 0 0 4 0 1 49 
9 0 0 0 5 0 1 49 
8 0 0 0 3 0 1 49 
2 0 0 0 7 0 1 49 
0 0 0 0 0 0 1 50 
0 0 0 0 0 0 4 51 63 75 87 
0 0 0 0 0 0 5 52 53 55 56 57 
10 0 2 0 0 0 1 54 
6 0 4 0 0 0 1 54 
1 0 3 0 0 0 4 61 60 59 58 
4 0 3 0 0 0 3 60 59 58 
5 0 6 0 0 0 1 59 
4 0 3 0 0 0 1 58 
6 0 4 0 0 0 1 62 
1 0 9 0 0 0 1 62 
1 0 6 0 0 0 2 62 266 
10 0 10 0 0 0 1 62 
0 0 0 0 0 0 1 99 
0 0 0 0 0 0 4 64 65 66 67 
7 1 0 0 0 0 3 70 69 68 
10 5 0 0 0 0 3 70 69 68 
3 6 0 0 0 0 3 70 69 68 
10 4 0 0 0 0 2 70 69 
9 3 0 0 0 0 3 73 72 71 
6 8 0 0 0 0 2 73 71 
2 10 0 0 0 0 3 72 71 272 
2 4 0 0 0 0 1 74 
1 5 0 0 0 0 1 74 
9 4 0 0 0 0 1 74 
0 0 0 0 0 0 1 99 
0 0 0 0 0 0 2 76 77 
7 0 1 0 0 0 6 83 82 81 80 79 78 
3 0 5 0 0 0 5 82 81 80 79 78 
3 0 6 0 0 0 2 85 84 
5 0 10 0 0 0 2 85 84 
2 0 5 0 0 0 2 85 84 
4 0 4 0 0 0 2 85 84 
2 0 4 0 0 0 1 85 
3 0 4 0 0 0 2 84 159 
1 0 6 0 0 0 1 86 
6 0 5 0 0 0 1 86 
0 0 0 0 0 0 1 99 
0 0 0 0 0 0 7 88 89 92 93 95 96 97 
5 0 0 1 0 0 1 91 
2 0 0 6 0 0 1 90 
4 0 0 8 0 0 2 94 131 
1 0 0 5 0 0 1 94 
6 0 0 5 0 0 1 94 
3 0 0 7 0 0 1 94 
7 0 0 5 0 0 1 98 
8 0 0 2 0 0 1 98 
2 0 0 3 0 0 1 98 
1 0 0 8 0 0 1 98 
0 0 0 0 0 0 1 99 
0 0 0 0 0 0 4 100 112 124 136 
0 0 0 0 0 0 4 101 102 104 105 
10 0 1 0 0 0 2 110 103 
5 0 6 0 0 0 4 110 109 107 106 
10 0 7 0 0 0 3 108 107 106 
9 0 8 0 0 0 3 109 107 106 
5 0 7 0 0 0 1 108 
3 0 6 0 0 0 1 111 
8 0 4 0 0 0 1 111 
1 0 4 0 0 0 2 111 137 
7 0 4 0 0 0 1 111 
10 0 3 0 0 0 1 111 
0 0 0 0 0 0 1 148 
0 0 0 0 0 0 4 113 114 116 117 
1 0 0 1 0 0 4 122 121 119 115 
8 0 0 3 0 0 1 115 
9 0 0 8 0 0 1 118 
7 0 0 5 0 0 2 120 191 
8 0 0 6 0 0 1 119 
4 0 0 6 0 0 1 123 
8 0 0 4 0 0 1 123 
5 0 0 4 0 0 1 123 
8 0 0 5 0 0 1 123 
7 0 0 8 0 0 1 123 
0 0 0 0 0 0 1 148 
0 0 0 0 0 0 7 125 126 127 130 132 133 134 
1 1 0 0 0 0 1 129 
2 5 0 0 0 0 1 128 
9 3 0 0 0 0 2 128 138 
8 2 0 0 0 0 1 131 
2 6 0 0 0 0 1 131 
5 6 0 0 0 0 1 131 
5 9 0 0 0 0 1 135 
9 6 0 0 0 0 1 135 
6 5 0 0 0 0 1 135 
4 7 0 0 0 0 1 135 
0 0 0 0 0 0 1 148 
0 0 0 0 0 0 5 137 138 140 145 146 
6 0 0 0 1 0 3 141 139 156 
6 0 0 0 10 0 3 144 143 141 
7 0 0 0 7 0 3 144 143 142 
5 0 0 0 4 0 2 143 141 
10 0 0 0 3 0 1 142 
10 0 0 0 6 0 1 147 
5 0 0 0 2 0 1 147 
9 0 0 0 8 0 1 147 
1 0 0 0 3 0 1 147 
9 0 0 0 6 0 1 147 
0 0 0 0 0 0 1 148 
0 0 0 0 0 0 4 149 161 183 205 
0 0 0 0 0 0 4 150 152 153 236 
5 0 0 1 0 0 3 156 154 151 
5 0 0 7 0 0 4 159 158 157 155 
2 0 0 2 0 0 3 158 156 155 
7 0 0 4 0 0 3 157 156 155 
5 0 0 6 0 0 1 155 
9 0 0 3 0 0 1 160 
4 0 0 6 0 0 1 160 
2 0 0 4 0 0 1 160 
7 0 0 7 0 0 1 160 
10 0 0 10 0 0 1 160 
0 0 0 0 0 0 4 227 239 251 263 
0 0 0 0 0 0 6 162 165 166 169 180 181 
4 0 1 0 0 1 3 172 170 163 
2 0 4 0 0 1 4 179 177 171 164 
8 0 6 0 0 7 3 178 173 168 
8 0 6 0 0 6 2 170 168 
3 0 6 0 0 7 2 170 167 
9 0 9 0 0 6 3 177 174 171 
4 0 2 0 0 7 3 176 175 174 
1 0 5 0 0 10 1 170 
7 0 4 0 0 4 2 173 252 
7 0 8 0 0 3 1 173 
6 0 6 0 0 2 1 173 
7 0 5 0 0 6 1 182 
8 0 5 0 0 5 1 182 
4 0 4 0 0 3 1 182 
5 0 4 0 0 6 1 182 
4 0 9 0 0 5 1 182 
10 0 6 0 0 4 1 182 
3 0 1 0 0 3 1 182 
6 0 5 0 0 6 1 182 
2 0 4 0 0 8 1 182 
0 0 0 0 0 0 1 275 
0 0 0 0 0 0 5 184 185 186 187 188 
4 0 0 1 1 0 4 193 192 191 190 
5 0 0 2 6 0 2 190 189 
7 0 0 4 6 0 6 203 202 196 195 194 193 
4 0 0 5 3 0 2 196 189 
4 0 0 10 4 0 5 203 202 197 196 194 
1 0 0 6 3 0 4 203 202 194 193 
4 0 0 3 7 0 4 202 197 196 194 
6 0 0 6 5 0 4 202 197 196 194 
8 0 0 6 1 0 4 203 202 200 197 
3 0 0 4 7 0 3 200 198 197 
3 0 0 3 5 0 3 201 200 199 
5 0 0 4 4 0 2 201 197 
3 0 0 4 5 0 1 198 
1 0 0 7 5 0 1 199 
5 0 0 7 4 0 1 199 
5 0 0 7 9 0 1 204 
6 0 0 5 8 0 1 204 
1 0 0 4 5 0 1 204 
4 0 0 5 4 0 1 204 
10 0 0 7 8 0 1 204 
0 0 0 0 0 0 1 275 
0 0 0 0 0 0 10 206 207 208 211 214 215 216 223 224 225 
5 1 1 0 0 0 2 218 209 
7 8 5 0 0 0 2 218 210 
10 5 4 0 0 0 3 222 219 212 
3 6 5 0 0 0 3 221 219 213 
2 6 5 0 0 0 2 220 212 
8 7 8 0 0 0 2 219 213 
9 5 6 0 0 0 1 213 
3 5 3 0 0 0 1 217 
7 7 7 0 0 0 1 218 
7 3 4 0 0 0 1 218 
4 6 8 0 0 0 1 217 
10 5 7 0 0 0 1 226 
9 5 4 0 0 0 1 226 
2 1 6 0 0 0 1 226 
10 2 4 0 0 0 1 226 
8 9 6 0 0 0 1 226 
7 5 5 0 0 0 1 226 
4 4 3 0 0 0 1 226 
7 8 1 0 0 0 1 226 
1 2 8 0 0 0 1 226 
0 0 0 0 0 0 1 275 
0 0 0 0 0 0 4 228 229 230 232 
4 0 0 0 1 0 4 235 234 233 231 
6 0 0 0 4 0 4 235 234 233 231 
9 0 0 0 4 0 3 234 233 231 
8 0 0 0 6 0 2 237 236 
5 0 0 0 3 0 1 233 
6 0 0 0 2 0 1 237 
3 0 0 0 6 0 1 236 
10 0 0 0 9 0 1 236 
8 0 0 0 7 0 1 238 
5 0 0 0 8 0 1 238 
0 0 0 0 0 0 1 275 
0 0 0 0 0 0 5 240 241 243 244 245 
2 0 0 0 0 1 4 249 248 247 246 
7 0 0 0 0 5 2 248 242 
4 0 0 0 0 7 2 247 246 
3 0 0 0 0 5 2 249 247 
5 0 0 0 0 7 2 248 246 
8 0 0 0 0 7 2 247 246 
7 0 0 0 0 6 1 250 
4 0 0 0 0 5 1 250 
3 0 0 0 0 3 1 250 
10 0 0 0 0 4 1 250 
0 0 0 0 0 0 1 275 
0 0 0 0 0 0 4 252 253 260 261 
4 0 0 0 0 1 3 259 255 254 
2 0 0 0 0 4 1 254 
4 0 0 0 0 5 3 258 257 256 
9 0 0 0 0 5 1 256 
3 0 0 0 0 6 1 262 
9 0 0 0 0 4 1 262 
1 0 0 0 0 10 1 262 
4 0 0 0 0 2 1 262 
8 0 0 0 0 7 1 262 
8 0 0 0 0 6 1 262 
0 0 0 0 0 0 1 275 
0 0 0 0 0 0 3 264 266 268 
1 0 0 0 0 1 2 267 265 
8 0 0 0 0 4 5 273 272 271 270 269 
10 0 0 0 0 4 3 273 270 269 
7 0 0 0 0 4 2 272 270 
3 0 0 0 0 6 2 271 269 
4 0 0 0 0 5 1 274 
4 0 0 0 0 5 1 274 
9 0 0 0 0 5 1 274 
6 0 0 0 0 8 1 274 
3 0 0 0 0 8 1 274 
0 0 0 0 0 0 1 275 
0 0 0 0 0 0 0 
